c description: Random 2-CNF over 15 variables and 30 clauses
c generator: CNFgen (0.9.0)
c copyright: (C) 2012-2020 Massimo Lauria <massimo.lauria@uniroma1.it>
c url: https://massimolauria.net/cnfgen
c
p cnf 15 30
-1 8 0
-12 -15 0
-5 -6 0
3 8 0
-9 -12 0
-13 14 0
8 14 0
-9 14 0
-7 11 0
-5 -13 0
9 -14 0
1 13 0
9 -11 0
-5 6 0
-6 13 0
10 -11 0
1 2 0
-3 -8 0
-3 4 0
9 -15 0
-6 -14 0
4 5 0
-11 -12 0
-8 13 0
4 -7 0
8 13 0
4 -8 0
6 8 0
13 14 0
-10 -11 0